RT is False
Default write of storage_offers_DA.csv just to have a file (but constraint should be inactive)
Reading model...
...model read.
creating competitive generators file...
...competitive generators recorded.
Loading data...
.. day-ahead data read.
Compiling instance...
...instance created.
Creating Offer Mitigation (model will solve as dispatch if TRUE)...
NOTE: storage offers will not be mitigated
...storage offer mitigation file created
Converting model to MPEC...
...converted
NOTE: initial MIP solve with only storage competitive to get feasible solution
Solving...

Welcome to IBM(R) ILOG(R) CPLEX(R) Interactive Optimizer 12.9.0.0
  with Simplex, Mixed Integer & Barrier Optimizers
5725-A06 5725-A29 5724-Y48 5724-Y49 5724-Y54 5724-Y55 5655-Y21
Copyright IBM Corp. 1988, 2019.  All Rights Reserved.

Type 'help' for a list of available commands.
Type 'help' followed by a command name for more
information on commands.

CPLEX> Logfile 'cplex.log' closed.
Logfile 'C:\Users\llavin\Desktop\test919\logs\tmpl6etxxcs.cplex.log' open.
CPLEX> New value for parallel optimization mode: -1
CPLEX> New value for mixed integer optimality gap tolerance: 0.01
CPLEX> New value for integrality tolerance: 1e-09
CPLEX> New value for feasibility tolerance: 0.01
CPLEX> New value for deterministic time limit in ticks: 75000
CPLEX> Problem 'C:\Users\llavin\Desktop\test919\logs\tmpvrm70qah.pyomo.lp' read.
Read time = 0.23 sec. (14.73 ticks)
CPLEX> Problem name         : C:\Users\llavin\Desktop\test919\logs\tmpvrm70qah.pyomo.lp
Objective sense      : Maximize
Variables            :   53805  [Nneg: 1,  Box: 22000,  Free: 4464,
                                 Binary: 27340]
Objective nonzeros   :    9024
Linear constraints   :  123205  [Less: 41346,  Greater: 59096,  Equal: 22763]
  Nonzeros           :  291748
  RHS nonzeros       :   67486

Variables            : Min LB: -5000.000        Max UB: 1000000.       
Objective nonzeros   : Min   : 0.2000000        Max   : 2500.000       
Linear constraints   :
  Nonzeros           : Min   : 0.2000000        Max   : 1000000.       
  RHS nonzeros       : Min   : 0.2000000        Max   : 1000000.       
CPLEX> CPXPARAM_Parallel                                -1
CPXPARAM_Simplex_Tolerances_Feasibility          0.01
CPXPARAM_DetTimeLimit                            75000
CPXPARAM_MIP_Tolerances_MIPGap                   0.01
CPXPARAM_MIP_Tolerances_Integrality              1.0000000000000001e-09
Tried aggregator 3 times.
MIP Presolve eliminated 88709 rows and 19033 columns.
MIP Presolve added 3368 rows and 0 columns.
MIP Presolve modified 24855 coefficients.
Aggregator did 12959 substitutions.
Reduced MIP has 24905 rows, 21257 columns, and 71036 nonzeros.
Reduced MIP has 8397 binaries, 0 generals, 0 SOSs, and 0 indicators.
Presolve time = 0.30 sec. (176.13 ticks)
Probing fixed 375 vars, tightened 2793 bounds.
Probing time = 1.19 sec. (885.20 ticks)
Tried aggregator 2 times.
MIP Presolve eliminated 843 rows and 752 columns.
MIP Presolve modified 2208 coefficients.
Aggregator did 44 substitutions.
Reduced MIP has 24018 rows, 20461 columns, and 68456 nonzeros.
Reduced MIP has 8022 binaries, 0 generals, 0 SOSs, and 0 indicators.
Presolve time = 0.11 sec. (71.05 ticks)
Probing time = 0.03 sec. (15.83 ticks)
Clique table members: 6584.
MIP emphasis: balance optimality and feasibility.
MIP search method: dynamic search.
Parallel mode: opportunistic, using up to 32 threads.
Root relaxation solution time = 0.45 sec. (557.84 ticks)

        Nodes                                         Cuts/
   Node  Left     Objective  IInf  Best Integer    Best Bound    ItCnt     Gap

      0     0     4046.2996   784                   4046.2996     6673         
      0     0     4046.2024    27                    Cuts: 28     6686         
      0     0     4046.2024    25                Flowcuts: 29     6693         
      0     0     4046.2024    25                 Flowcuts: 2     6693         
      0    27    infeasible                           Cuts: 2     6981         
Elapsed time = 8.08 sec. (4797.20 ticks, tree = 0.02 MB, solutions = 0)
    522   178     3845.4840     1                   4040.4979     9196         
    801   468   -70846.6263    28                   4040.4979    13222         
*   928+  430                         3497.5319     4040.4979            15.52%
   1219   410     3997.6787     7     3497.5319     4040.4979    15911   15.52%
*  1388   398      integral     0     3502.3629     4040.4979    16243   15.36%
   1641   348     3841.7069     4     3502.3629     4040.4979    16841   15.36%
   1866   413     4008.7078     5     3502.3629     4040.4979    17139   15.36%
   2031   434        cutoff           3502.3629     4040.4979    17211   15.36%
   2201   449     4040.4979     2     3502.3629     4040.4979    17297   15.36%
   2658   612        cutoff           3502.3629     4040.4979    18244   15.36%
Elapsed time = 19.67 sec. (7654.48 ticks, tree = 2.49 MB, solutions = 2)
   3031   624        cutoff           3502.3629     4040.4979    18489   15.36%
   3318   624     3997.6787     2     3502.3629     4040.4979    18402   15.36%
   3584   624        cutoff           3502.3629     4040.4979    18499   15.36%
   3818   632        cutoff           3502.3629     4040.4979    18694   15.36%
   4068   647        cutoff           3502.3629     4040.4979    18889   15.36%
   4312   727        cutoff           3502.3629     4040.4979    19579   15.36%
   4539   679     4040.4979     2     3502.3629     4040.4979    19192   15.36%
   4793   790     4040.2611     2     3502.3629     4040.4979    20023   15.36%
   4975   806     4030.6278     3     3502.3629     4040.4979    20105   15.36%
   5220   889     4040.4979     4     3502.3629     4040.4979    20696   15.36%
Elapsed time = 35.94 sec. (17224.40 ticks, tree = 3.76 MB, solutions = 2)
   5370   899        cutoff           3502.3629     4040.4979    20783   15.36%
   5547   952     3883.5547     3     3502.3629     4040.4979    21146   15.36%
   5732   918     4040.2611     2     3502.3629     4040.4979    20903   15.36%
   5873  1083        cutoff           3502.3629     4040.4979    21914   15.36%
   6034   949     3948.4817     1     3502.3629     4040.4979    21163   15.36%
   6154  1076     3968.4610     1     3502.3629     4040.4979    21858   15.36%
   6279  1210        cutoff           3502.3629     4040.4979    23153   15.36%
   6416  1218        cutoff           3502.3629     4040.4979    23288   15.36%
   6530  1164     4038.7941     2     3502.3629     4040.4979    22861   15.36%
   6642  1163        cutoff           3502.3629     4040.4979    22863   15.36%
Elapsed time = 50.56 sec. (26802.84 ticks, tree = 4.99 MB, solutions = 2)
   6748  1215        cutoff           3502.3629     4040.4979    23238   15.36%
   6870  1215     4040.2611     2     3502.3629     4040.4979    23189   15.36%
   6982  1219     3997.6787     4     3502.3629     4040.4979    23297   15.36%
   7102  1260        cutoff           3502.3629     4040.4979    23744   15.36%
   7217  1264        cutoff           3502.3629     4040.4979    23839   15.36%
   7325  1272        cutoff           3502.3629     4040.4979    23959   15.36%
   7434  1275        cutoff           3502.3629     4040.4979    23993   15.36%
   7544  1264        cutoff           3502.3629     4040.4979    23838   15.36%
   7641  1291        cutoff           3502.3629     4040.4979    24241   15.36%
   7741  1277        cutoff           3502.3629     4040.4979    24041   15.36%
Elapsed time = 59.92 sec. (36421.74 ticks, tree = 5.52 MB, solutions = 2)
   7827  1298     3997.6787     4     3502.3629     4040.4979    24333   15.36%
   7916  1293        cutoff           3502.3629     4040.4979    24268   15.36%
   8011  1296     3959.5486     3     3502.3629     4040.4979    24233   15.36%
   8108  1284     4040.2611     2     3502.3629     4040.4979    24148   15.36%
   8196  1297        cutoff           3502.3629     4040.4979    24304   15.36%
   8277  1312     3948.4817     1     3502.3629     4040.4979    24549   15.36%
   8374  1298     4040.2611     2     3502.3629     4040.4979    24314   15.36%
   8459  1305     4040.2611     2     3502.3629     4040.4979    24459   15.36%
   8544  1311        cutoff           3502.3629     4040.4979    24552   15.36%
   8642  1334        cutoff           3502.3629     4040.4979    24971   15.36%
Elapsed time = 70.59 sec. (46079.84 ticks, tree = 5.78 MB, solutions = 2)
   8712  1333     4035.6669     2     3502.3629     4040.4979    24850   15.36%
   8787  1321        cutoff           3502.3629     4040.4979    24721   15.36%
   8872  1340     3846.9670     2     3502.3629     4040.4979    25045   15.36%
   8954  1332        cutoff           3502.3629     4040.4979    24854   15.36%
   9030  1361        cutoff           3502.3629     4040.4979    25465   15.36%
   9115  1334     4024.2368     1     3502.3629     4040.4979    24930   15.36%
   9202  1351     3997.6787     2     3502.3629     4040.4979    25180   15.36%
   9274  1341     3883.5547     1     3502.3629     4040.4979    25074   15.36%
   9352  1333        cutoff           3502.3629     4040.4979    24935   15.36%
   9420  1333     3947.9258     1     3502.3629     4040.4979    24907   15.36%
Elapsed time = 80.41 sec. (55706.22 ticks, tree = 5.76 MB, solutions = 2)
   9501  1348        cutoff           3502.3629     4040.4979    25165   15.36%
   9580  1348     3938.4860     1     3502.3629     4040.4979    25126   15.36%
   9647  1353     3997.6787     2     3502.3629     4040.4979    25195   15.36%
   9715  1355     3883.5547     3     3502.3629     4040.4979    25269   15.36%
   9795  1360     4040.4979     2     3502.3629     4040.4979    25405   15.36%
   9864  1359        cutoff           3502.3629     4040.4979    25308   15.36%
   9924  1377     4040.4979     2     3502.3629     4040.4979    25596   15.36%
  10009  1373     3959.5486     3     3502.3629     4040.4979    25518   15.36%
  10053  1361     4038.7941     2     3502.3629     4040.4979    25425   15.36%
  10121  1375     3883.5547     1     3502.3629     4040.4979    25556   15.36%
Elapsed time = 85.89 sec. (65423.23 ticks, tree = 5.94 MB, solutions = 2)
  10193  1361     4040.4979     2     3502.3629     4040.4979    25423   15.36%
  10236  1384        cutoff           3502.3629     4040.4979    25697   15.36%
  10298  1363     3948.4817     1     3502.3629     4040.4979    25428   15.36%
  10348  1382     4040.2611     2     3502.3629     4040.4979    25662   15.36%
  10386  1398     3569.0938     1     3502.3629     4040.4979    25876   15.36%
  10443  1388     3938.4860     1     3502.3629     4040.4979    25734   15.36%
  10471  1398        cutoff           3502.3629     4040.4979    25881   15.36%
  10520  1390     4038.5574     2     3502.3629     4040.4979    25766   15.36%
  10544  1397        cutoff           3502.3629     4040.4979    25882   15.36%
  10567  1394     3997.6787     2     3502.3629     4040.4979    25814   15.36%
Elapsed time = 90.45 sec. (75362.58 ticks, tree = 6.07 MB, solutions = 2)
  10577  1400     4040.4979     2     3502.3629     4040.4979    25911   15.36%

Cover cuts applied:  2
Implied bound cuts applied:  1
Flow cuts applied:  18
Gomory fractional cuts applied:  13

Root node processing (before b&c):
  Real time             =    6.84 sec. (4790.36 ticks)
Parallel b&c, 32 threads:
  Real time             =   84.25 sec. (71728.97 ticks)
  Sync time (average)   =    0.68 sec.
  Wait time (average)   =    0.00 sec.
                          ------------
Total (root+branch&cut) =   91.09 sec. (76519.33 ticks)

Solution pool: 2 solutions saved.

MIP - Deterministic time limit exceeded, integer feasible:  Objective =  3.5023628969e+03
Current MIP best bound =  4.0404978540e+03 (gap = 538.135, 15.36%)
Solution time =   91.11 sec.  Iterations = 26467  Nodes = 10578 (1438)
Deterministic time = 76519.49 ticks  (839.86 ticks/sec)

CPLEX> Incumbent solution written to file 'C:\Users\llavin\Desktop\test919\logs\tmpqael23_m.cplex.sol'.
CPLEX> NOTE: no warmstart specified for MIP iteration, default behavior is true
NOTE: resolving with all competitive generators using storage-only solution to warmstart
Solving...

Welcome to IBM(R) ILOG(R) CPLEX(R) Interactive Optimizer 12.9.0.0
  with Simplex, Mixed Integer & Barrier Optimizers
5725-A06 5725-A29 5724-Y48 5724-Y49 5724-Y54 5724-Y55 5655-Y21
Copyright IBM Corp. 1988, 2019.  All Rights Reserved.

Type 'help' for a list of available commands.
Type 'help' followed by a command name for more
information on commands.

CPLEX> Logfile 'cplex.log' closed.
Logfile 'C:\Users\llavin\Desktop\test919\logs\tmpcinki8k7.cplex.log' open.
CPLEX> New value for parallel optimization mode: -1
CPLEX> New value for mixed integer optimality gap tolerance: 0.01
CPLEX> New value for integrality tolerance: 1e-09
CPLEX> New value for feasibility tolerance: 0.01
CPLEX> New value for deterministic time limit in ticks: 75000
CPLEX> Problem 'C:\Users\llavin\Desktop\test919\logs\tmp_6ibwhx2.pyomo.lp' read.
Read time = 0.27 sec. (14.75 ticks)
CPLEX> MIP start file 'C:\Users\llavin\Desktop\test919\logs\tmp2audalc6.cplex.mst' read.
CPLEX> Problem name         : C:\Users\llavin\Desktop\test919\logs\tmp_6ibwhx2.pyomo.lp
Objective sense      : Maximize
Variables            :   54525  [Nneg: 1,  Box: 22720,  Free: 4464,
                                 Binary: 27340]
Objective nonzeros   :    9720
Linear constraints   :  123205  [Less: 41346,  Greater: 59096,  Equal: 22763]
  Nonzeros           :  291748
  RHS nonzeros       :   67486

Variables            : Min LB: -5000.000        Max UB: 1000000.       
Objective nonzeros   : Min   : 0.3000000        Max   : 2500.000       
Linear constraints   :
  Nonzeros           : Min   : 0.2000000        Max   : 1000000.       
  RHS nonzeros       : Min   : 0.2000000        Max   : 1000000.       
CPLEX> CPXPARAM_Parallel                                -1
CPXPARAM_Simplex_Tolerances_Feasibility          0.01
CPXPARAM_DetTimeLimit                            75000
CPXPARAM_MIP_Tolerances_MIPGap                   0.01
CPXPARAM_MIP_Tolerances_Integrality              1.0000000000000001e-09
Warning:  No solution found from 1 MIP starts.
Retaining values of one MIP start for possible repair.
Tried aggregator 3 times.
MIP Presolve eliminated 88709 rows and 19753 columns.
MIP Presolve added 3368 rows and 0 columns.
MIP Presolve modified 24855 coefficients.
Aggregator did 12959 substitutions.
Reduced MIP has 24905 rows, 21257 columns, and 71036 nonzeros.
Reduced MIP has 8397 binaries, 0 generals, 0 SOSs, and 0 indicators.
Presolve time = 0.30 sec. (176.50 ticks)
Probing fixed 375 vars, tightened 2793 bounds.
Probing time = 1.20 sec. (885.20 ticks)
Tried aggregator 2 times.
MIP Presolve eliminated 843 rows and 752 columns.
MIP Presolve modified 2208 coefficients.
Aggregator did 44 substitutions.
Reduced MIP has 24018 rows, 20461 columns, and 68456 nonzeros.
Reduced MIP has 8022 binaries, 0 generals, 0 SOSs, and 0 indicators.
Presolve time = 0.09 sec. (71.05 ticks)
Probing time = 0.03 sec. (15.83 ticks)
Clique table members: 6584.
MIP emphasis: balance optimality and feasibility.
MIP search method: dynamic search.
Parallel mode: opportunistic, using up to 32 threads.
Root relaxation solution time = 0.38 sec. (289.53 ticks)

        Nodes                                         Cuts/
   Node  Left     Objective  IInf  Best Integer    Best Bound    ItCnt     Gap

      0     0    58606.0585  1929                  58606.0585     6859         
      0     0    58448.3254   663                   Cuts: 908     7296         
      0     0    58432.7030   563                   Cuts: 474     7512         
      0     0    58432.5124   458                   Cuts: 249     7637         
      0     0    58429.3157   440                    Cuts: 93     7689         
      0     0    58429.1542   417                    Cuts: 87     7732         
      0     0    58429.1542   408                    Cuts: 44     7753         
      0     0    58429.1542   401                    Cuts: 44     7764         
      0     0    58429.1542   400                    Cuts: 26     7765         
      0     0    58429.1542   399                    Cuts: 24     7766         
Repair heuristic found nothing.
      0    28    52022.1447   388                     Cuts: 6     7894         
Elapsed time = 10.20 sec. (5774.11 ticks, tree = 0.02 MB, solutions = 0)
    415    97    57510.9060   374                  58307.8819    10432         
    822   328    55414.5036   326                  58307.8819    17112         
   1366   938    56081.3987   337                  58307.8819    24329         
   2040   732    54816.2782   330                  58307.8819    23109         
   2957  1507    56105.2739   319                  58307.8819    31412         
   4128  2223    55472.4244   274                  58307.8819    36509         
   4998  4037    50961.5111   240                  58307.8819    43058         
   5582  4059    50961.5111   220                  58307.8819    43098         
   6129  4663   -58114.7701   237                  58307.8819    48635         
   9213  6778    54710.1448   298                  58307.8819    57950         
Elapsed time = 28.59 sec. (8878.04 ticks, tree = 59.78 MB, solutions = 3)
* 11134  8177      integral     0    51495.4977    58307.8819    61204   13.23%
* 11608  8277      integral     0    53567.1886    58307.8819    61271    8.85%
  12342  7284        cutoff          53567.1886    57852.8882    71488    8.00%
  13253   896    56198.8889    19    53567.1886    57634.6296    77692    7.59%
  15893   910        cutoff          55375.4365    57634.6296    77771    4.08%
* 18480  1273      integral     0    56249.4069    57512.5282    89415    2.25%
  20652  2713    56399.8401    11    56249.4069    57511.9724   100990    2.24%
  20766   787    56785.7580    29    56249.4069    57511.9724   113319    2.24%

Clique cuts applied:  60
Cover cuts applied:  14
Implied bound cuts applied:  124
Flow cuts applied:  275
Mixed integer rounding cuts applied:  68
Gomory fractional cuts applied:  113

Root node processing (before b&c):
  Real time             =    8.67 sec. (5751.08 ticks)
Parallel b&c, 32 threads:
  Real time             =   50.81 sec. (15415.24 ticks)
  Sync time (average)   =    3.40 sec.
  Wait time (average)   =    0.23 sec.
                          ------------
Total (root+branch&cut) =   59.48 sec. (21166.32 ticks)

Solution pool: 10 solutions saved.

MIP - Integer optimal, tolerance (0.01/1e-06):  Objective =  5.6249406859e+04
Current MIP best bound =  5.6802362112e+04 (gap = 552.955, 0.98%)
Solution time =   59.50 sec.  Iterations = 113875  Nodes = 20771 (773)
Deterministic time = 21166.47 ticks  (355.74 ticks/sec)

CPLEX> Incumbent solution written to file 'C:\Users\llavin\Desktop\test919\logs\tmp4x6ys0g5.cplex.sol'.
CPLEX> Exporting results... 
